70
959
7
71
48
91
69
30
2
43
0 1
0 4
0 7
0 9
0 16
0 17
0 19
0 20
0 22
0 24
0 32
0 34
0 35
0 37
0 38
0 40
0 41
0 42
0 45
0 48
0 52
0 59
0 63
0 64
0 65
0 66
0 68
1 4
1 5
1 8
1 9
1 12
1 20
1 24
1 26
1 27
1 29
1 30
1 31
1 32
1 34
1 36
1 39
1 51
1 57
1 58
1 63
1 69
2 3
2 7
2 8
2 10
2 15
2 19
2 23
2 24
2 25
2 29
2 31
2 32
2 33
2 37
2 40
2 44
2 45
2 46
2 47
2 51
2 53
2 54
2 57
2 58
2 59
2 64
2 68
2 69
3 6
3 11
3 14
3 15
3 16
3 17
3 19
3 22
3 23
3 26
3 27
3 37
3 38
3 47
3 49
3 53
3 55
3 57
3 65
3 67
3 68
4 5
4 7
4 12
4 16
4 19
4 23
4 25
4 26
4 30
4 31
4 33
4 38
4 39
4 41
4 42
4 44
4 48
4 51
4 52
4 59
4 63
4 65
4 68
4 69
5 9
5 17
5 21
5 22
5 25
5 26
5 29
5 31
5 32
5 38
5 42
5 50
5 52
5 56
5 59
5 60
5 61
5 64
5 65
5 66
5 67
6 11
6 13
6 14
6 26
6 28
6 35
6 37
6 38
6 39
6 41
6 42
6 50
6 53
6 54
6 56
6 61
6 63
6 64
6 65
6 66
6 67
7 10
7 13
7 14
7 15
7 18
7 23
7 24
7 28
7 35
7 36
7 38
7 42
7 43
7 45
7 47
7 51
7 54
7 55
7 58
7 59
7 60
7 61
7 64
7 67
8 11
8 13
8 14
8 15
8 16
8 17
8 19
8 21
8 22
8 24
8 26
8 27
8 28
8 29
8 31
8 33
8 36
8 37
8 38
8 41
8 46
8 47
8 51
8 52
8 55
8 56
8 60
8 62
8 64
8 65
8 69
9 11
9 13
9 16
9 18
9 20
9 21
9 23
9 26
9 31
9 33
9 36
9 37
9 38
9 41
9 44
9 45
9 49
9 51
9 57
9 58
9 61
9 64
9 68
10 11
10 16
10 17
10 19
10 21
10 27
10 28
10 31
10 32
10 36
10 38
10 39
10 42
10 43
10 44
10 45
10 46
10 48
10 50
10 52
10 58
10 67
10 68
10 69
11 12
11 16
11 19
11 20
11 22
11 26
11 29
11 30
11 31
11 34
11 37
11 40
11 43
11 51
11 52
11 55
11 56
11 59
11 61
11 63
11 64
11 68
12 14
12 21
12 26
12 28
12 30
12 31
12 36
12 39
12 42
12 43
12 57
12 62
12 63
12 65
12 68
12 69
13 15
13 16
13 17
13 18
13 23
13 26
13 28
13 29
13 30
13 43
13 45
13 46
13 47
13 49
13 52
13 54
13 55
13 57
13 59
13 60
13 62
13 63
13 65
13 67
14 15
14 16
14 17
14 20
14 25
14 26
14 27
14 28
14 29
14 34
14 35
14 36
14 38
14 39
14 40
14 46
14 47
14 49
14 51
14 54
14 58
14 65
15 17
15 23
15 25
15 26
15 28
15 30
15 34
15 35
15 38
15 39
15 40
15 43
15 45
15 47
15 48
15 50
15 51
15 52
15 56
15 57
15 61
15 65
15 69
16 20
16 22
16 26
16 27
16 28
16 30
16 32
16 34
16 38
16 40
16 42
16 44
16 47
16 50
16 53
16 54
16 56
16 62
16 64
16 67
16 69
17 18
17 19
17 20
17 28
17 30
17 32
17 34
17 35
17 36
17 40
17 52
17 56
17 59
17 62
17 63
17 67
17 68
18 23
18 25
18 27
18 28
18 30
18 31
18 33
18 38
18 39
18 41
18 44
18 46
18 53
18 61
18 62
18 63
18 69
19 26
19 30
19 32
19 33
19 34
19 35
19 36
19 39
19 45
19 47
19 48
19 49
19 50
19 53
19 54
19 55
19 59
19 62
19 63
19 64
20 21
20 25
20 26
20 30
20 31
20 33
20 38
20 41
20 45
20 47
20 49
20 50
20 51
20 54
20 55
20 56
20 57
20 58
20 60
20 62
20 63
20 64
20 65
20 68
20 69
21 25
21 30
21 31
21 36
21 41
21 42
21 46
21 47
21 48
21 49
21 50
21 53
21 57
21 58
21 61
21 62
21 66
21 67
21 68
21 69
22 27
22 30
22 32
22 33
22 36
22 37
22 38
22 40
22 42
22 43
22 44
22 46
22 48
22 52
22 53
22 54
22 56
22 57
22 65
22 66
22 68
23 26
23 27
23 33
23 36
23 37
23 40
23 41
23 44
23 50
23 52
23 54
23 56
23 58
23 60
23 61
23 63
23 65
23 67
23 69
24 38
24 39
24 40
24 42
24 43
24 46
24 48
24 51
24 52
24 53
24 56
24 58
24 62
24 63
24 65
24 66
24 67
24 68
25 26
25 28
25 29
25 31
25 33
25 34
25 35
25 36
25 39
25 40
25 42
25 43
25 44
25 46
25 48
25 50
25 52
25 54
25 55
25 57
25 59
25 61
25 65
25 66
25 69
26 28
26 30
26 35
26 38
26 39
26 40
26 41
26 47
26 49
26 52
26 53
26 54
26 57
26 59
26 60
26 61
26 66
26 68
27 28
27 30
27 33
27 36
27 38
27 39
27 45
27 46
27 47
27 49
27 50
27 57
27 59
27 61
27 63
27 64
27 66
27 69
28 31
28 33
28 35
28 36
28 37
28 39
28 40
28 41
28 45
28 47
28 48
28 49
28 50
28 52
28 53
28 56
28 59
28 60
28 61
28 62
28 64
28 66
28 67
28 68
29 30
29 32
29 33
29 34
29 37
29 44
29 46
29 48
29 50
29 52
29 53
29 55
29 61
29 62
29 63
29 64
29 65
29 69
30 33
30 35
30 38
30 41
30 42
30 45
30 46
30 48
30 51
30 52
30 57
30 60
30 62
30 63
30 66
30 68
31 34
31 35
31 36
31 38
31 39
31 46
31 49
31 64
31 65
31 66
31 69
32 33
32 35
32 36
32 37
32 40
32 44
32 51
32 54
32 58
32 65
32 67
32 69
33 34
33 37
33 38
33 40
33 41
33 43
33 44
33 46
33 49
33 50
33 53
33 56
33 58
33 59
33 63
33 65
34 36
34 39
34 40
34 43
34 47
34 49
34 55
34 56
34 64
34 67
34 69
35 37
35 38
35 39
35 40
35 45
35 46
35 47
35 50
35 52
35 53
35 57
35 63
35 64
35 66
36 39
36 40
36 41
36 43
36 46
36 49
36 50
36 52
36 53
36 58
36 59
36 62
36 63
36 65
36 68
37 42
37 43
37 44
37 45
37 46
37 47
37 48
37 50
37 57
37 58
37 59
37 61
37 65
37 66
37 68
38 39
38 40
38 42
38 45
38 46
38 48
38 52
38 54
38 57
38 61
38 65
38 68
38 69
39 42
39 44
39 47
39 48
39 50
39 51
39 52
39 53
39 54
39 56
39 57
39 59
39 61
39 64
39 65
39 67
40 41
40 44
40 45
40 48
40 49
40 57
40 58
40 59
40 60
40 62
40 64
40 69
41 51
41 52
41 53
41 55
41 58
41 60
41 62
41 64
41 65
41 66
41 67
42 44
42 45
42 49
42 51
42 52
42 53
42 55
42 57
42 58
42 59
42 62
42 63
43 45
43 47
43 48
43 50
43 51
43 54
43 55
43 59
43 62
43 66
44 47
44 48
44 49
44 52
44 53
44 56
44 61
44 68
44 69
45 46
45 48
45 49
45 51
45 53
45 55
45 57
45 58
45 60
45 64
45 65
45 67
45 68
45 69
46 48
46 53
46 55
46 56
46 60
46 64
46 67
47 49
47 52
47 57
47 60
47 65
47 66
47 67
48 49
48 50
48 56
48 59
48 60
48 61
48 63
48 65
48 68
49 52
49 54
49 55
49 57
49 59
49 60
49 68
49 69
50 52
50 53
50 60
50 65
50 68
51 53
51 54
51 59
51 65
51 67
51 68
52 53
52 55
52 57
52 58
52 59
52 62
52 63
52 65
53 56
53 60
53 63
53 64
54 55
54 64
55 61
55 62
55 64
55 67
55 68
56 57
56 58
56 61
56 64
56 65
56 66
56 69
57 58
57 62
57 65
57 66
58 60
58 63
58 65
58 66
58 67
58 68
58 69
59 63
59 64
59 65
59 66
60 62
61 63
61 64
61 67
62 67
63 64
63 65
63 66
64 66
65 68
65 69
66 67
66 68
67 68
67 69
68 69
40 68 20 11 24 13 35 69 37 53
26 29 10 41 59 18 48 7 57 63
14 39 32 8 47 43 38 42 52 44
16 17 49 6 65 62 12 27 54 9
23 22 46 50 55 60 31 28 56 2
3 66 64 5 61 58 1 21 25 45
15 36 33 34 30 67 19 51 4 0
